c Reduced graph for r05 generated by Cyril Grelier
p edge 141 1254
e 1 2
e 1 6
e 1 24
e 1 28
e 1 44
e 1 46
e 1 49
e 1 53
e 1 55
e 1 56
e 1 59
e 1 60
e 1 61
e 1 78
e 1 88
e 1 90
e 1 96
e 1 106
e 1 109
e 1 129
e 1 139
e 2 11
e 2 21
e 2 32
e 2 44
e 2 49
e 2 55
e 2 56
e 2 78
e 2 90
e 2 96
e 2 109
e 2 120
e 3 10
e 3 17
e 3 29
e 3 32
e 3 44
e 3 45
e 3 46
e 3 67
e 3 95
e 3 103
e 3 107
e 3 112
e 3 116
e 3 117
e 3 119
e 3 127
e 3 128
e 3 133
e 3 138
e 3 140
e 4 7
e 4 14
e 4 19
e 4 29
e 4 33
e 4 41
e 4 48
e 4 60
e 4 65
e 4 87
e 4 92
e 4 101
e 4 105
e 4 113
e 4 118
e 4 130
e 4 134
e 4 140
e 5 8
e 5 31
e 5 35
e 5 42
e 5 52
e 5 57
e 5 64
e 5 71
e 5 73
e 5 74
e 5 80
e 5 96
e 5 97
e 5 103
e 5 105
e 5 110
e 5 118
e 5 137
e 6 24
e 6 28
e 6 39
e 6 43
e 6 46
e 6 52
e 6 53
e 6 59
e 6 60
e 6 61
e 6 69
e 6 88
e 6 106
e 6 119
e 6 129
e 6 139
e 7 13
e 7 19
e 7 29
e 7 33
e 7 45
e 7 47
e 7 48
e 7 50
e 7 55
e 7 60
e 7 69
e 7 71
e 7 87
e 7 92
e 7 93
e 7 101
e 7 102
e 7 105
e 7 115
e 7 134
e 8 18
e 8 19
e 8 35
e 8 40
e 8 71
e 8 80
e 8 97
e 8 99
e 8 103
e 8 118
e 8 126
e 8 137
e 9 15
e 9 28
e 9 49
e 9 57
e 9 58
e 9 62
e 9 72
e 9 81
e 9 83
e 9 85
e 9 95
e 9 98
e 9 100
e 9 111
e 9 114
e 9 121
e 9 132
e 9 135
e 9 137
e 10 14
e 10 17
e 10 18
e 10 29
e 10 42
e 10 44
e 10 51
e 10 61
e 10 75
e 10 79
e 10 85
e 10 86
e 10 103
e 10 116
e 10 119
e 10 127
e 10 128
e 10 133
e 10 138
e 11 21
e 11 27
e 11 32
e 11 47
e 11 53
e 11 63
e 11 73
e 11 83
e 11 104
e 11 120
e 11 126
e 11 141
e 12 16
e 12 17
e 12 20
e 12 25
e 12 39
e 12 40
e 12 77
e 12 80
e 12 81
e 12 82
e 12 89
e 12 92
e 12 93
e 12 110
e 12 111
e 12 123
e 12 124
e 12 136
e 12 139
e 13 15
e 13 45
e 13 47
e 13 50
e 13 55
e 13 68
e 13 69
e 13 71
e 13 74
e 13 88
e 13 93
e 13 102
e 13 115
e 13 120
e 13 124
e 13 125
e 13 138
e 14 18
e 14 41
e 14 42
e 14 51
e 14 61
e 14 65
e 14 75
e 14 79
e 14 85
e 14 86
e 14 113
e 14 118
e 14 130
e 14 140
e 15 49
e 15 68
e 15 74
e 15 81
e 15 83
e 15 85
e 15 88
e 15 95
e 15 98
e 15 114
e 15 120
e 15 121
e 15 124
e 15 125
e 15 135
e 15 137
e 15 138
e 16 25
e 16 38
e 16 39
e 16 41
e 16 76
e 16 80
e 16 84
e 16 92
e 16 98
e 16 111
e 16 124
e 16 131
e 16 136
e 17 20
e 17 29
e 17 40
e 17 44
e 17 77
e 17 81
e 17 82
e 17 89
e 17 93
e 17 103
e 17 110
e 17 116
e 17 119
e 17 123
e 17 127
e 17 128
e 17 133
e 17 138
e 17 139
e 18 19
e 18 40
e 18 42
e 18 51
e 18 61
e 18 75
e 18 79
e 18 85
e 18 86
e 18 99
e 18 126
e 19 29
e 19 33
e 19 40
e 19 48
e 19 60
e 19 87
e 19 92
e 19 99
e 19 101
e 19 105
e 19 126
e 19 134
e 20 38
e 20 40
e 20 66
e 20 72
e 20 77
e 20 81
e 20 82
e 20 89
e 20 91
e 20 93
e 20 97
e 20 104
e 20 109
e 20 110
e 20 112
e 20 123
e 20 125
e 20 139
e 21 25
e 21 32
e 21 34
e 21 37
e 21 65
e 21 66
e 21 108
e 21 115
e 21 120
e 21 121
e 21 129
e 21 133
e 22 30
e 22 33
e 22 36
e 22 59
e 22 62
e 22 64
e 22 82
e 22 90
e 22 102
e 22 107
e 22 116
e 22 130
e 22 135
e 22 136
e 23 24
e 23 26
e 23 37
e 23 54
e 23 68
e 23 75
e 23 76
e 23 78
e 23 100
e 23 114
e 23 123
e 23 128
e 23 134
e 23 141
e 24 28
e 24 46
e 24 53
e 24 54
e 24 59
e 24 60
e 24 61
e 24 88
e 24 106
e 24 114
e 24 128
e 24 129
e 24 139
e 25 34
e 25 37
e 25 39
e 25 65
e 25 66
e 25 80
e 25 92
e 25 108
e 25 111
e 25 115
e 25 121
e 25 124
e 25 129
e 25 133
e 25 136
e 26 31
e 26 37
e 26 50
e 26 68
e 26 70
e 26 75
e 26 76
e 26 78
e 26 91
e 26 94
e 26 99
e 26 100
e 26 106
e 26 113
e 26 122
e 26 123
e 26 127
e 26 134
e 26 141
e 27 43
e 27 47
e 27 53
e 27 58
e 27 63
e 27 70
e 27 73
e 27 77
e 27 79
e 27 83
e 27 87
e 27 104
e 27 108
e 27 117
e 27 126
e 27 141
e 28 46
e 28 53
e 28 57
e 28 58
e 28 59
e 28 60
e 28 61
e 28 62
e 28 72
e 28 88
e 28 100
e 28 106
e 28 111
e 28 129
e 28 132
e 28 139
e 29 33
e 29 44
e 29 48
e 29 60
e 29 87
e 29 92
e 29 101
e 29 103
e 29 105
e 29 116
e 29 119
e 29 127
e 29 128
e 29 133
e 29 134
e 29 138
e 30 35
e 30 36
e 30 48
e 30 59
e 30 64
e 30 86
e 30 89
e 30 94
e 30 102
e 30 116
e 30 130
e 30 131
e 30 132
e 30 135
e 30 136
e 31 42
e 31 50
e 31 52
e 31 57
e 31 64
e 31 70
e 31 73
e 31 74
e 31 91
e 31 94
e 31 96
e 31 99
e 31 105
e 31 106
e 31 110
e 31 113
e 31 122
e 31 127
e 32 45
e 32 46
e 32 67
e 32 95
e 32 107
e 32 112
e 32 117
e 32 120
e 32 140
e 33 48
e 33 60
e 33 62
e 33 82
e 33 87
e 33 90
e 33 92
e 33 101
e 33 105
e 33 107
e 33 134
e 34 36
e 34 37
e 34 51
e 34 54
e 34 56
e 34 63
e 34 65
e 34 66
e 34 67
e 34 84
e 34 101
e 34 108
e 34 115
e 34 121
e 34 122
e 34 129
e 34 133
e 35 48
e 35 71
e 35 80
e 35 86
e 35 89
e 35 94
e 35 97
e 35 103
e 35 118
e 35 131
e 35 132
e 35 137
e 36 51
e 36 54
e 36 56
e 36 59
e 36 63
e 36 64
e 36 67
e 36 84
e 36 101
e 36 102
e 36 116
e 36 122
e 36 130
e 36 135
e 36 136
e 37 65
e 37 66
e 37 68
e 37 75
e 37 76
e 37 78
e 37 100
e 37 108
e 37 115
e 37 121
e 37 123
e 37 129
e 37 133
e 37 134
e 37 141
e 38 41
e 38 66
e 38 72
e 38 76
e 38 84
e 38 91
e 38 97
e 38 98
e 38 104
e 38 109
e 38 112
e 38 125
e 38 131
e 39 43
e 39 52
e 39 69
e 39 80
e 39 92
e 39 111
e 39 119
e 39 124
e 39 136
e 40 77
e 40 81
e 40 82
e 40 89
e 40 93
e 40 99
e 40 110
e 40 123
e 40 126
e 40 139
e 41 65
e 41 76
e 41 84
e 41 98
e 41 113
e 41 118
e 41 130
e 41 131
e 41 140
e 42 51
e 42 52
e 42 57
e 42 61
e 42 64
e 42 73
e 42 74
e 42 75
e 42 79
e 42 85
e 42 86
e 42 96
e 42 105
e 42 110
e 43 52
e 43 58
e 43 69
e 43 70
e 43 77
e 43 79
e 43 87
e 43 108
e 43 117
e 43 119
e 44 49
e 44 55
e 44 56
e 44 78
e 44 90
e 44 96
e 44 103
e 44 109
e 44 116
e 44 119
e 44 127
e 44 128
e 44 133
e 44 138
e 45 46
e 45 47
e 45 50
e 45 55
e 45 67
e 45 69
e 45 71
e 45 93
e 45 95
e 45 102
e 45 107
e 45 112
e 45 115
e 45 117
e 45 140
e 46 53
e 46 59
e 46 60
e 46 61
e 46 67
e 46 88
e 46 95
e 46 106
e 46 107
e 46 112
e 46 117
e 46 129
e 46 139
e 46 140
e 47 50
e 47 53
e 47 55
e 47 63
e 47 69
e 47 71
e 47 73
e 47 83
e 47 93
e 47 102
e 47 104
e 47 115
e 47 126
e 47 141
e 48 60
e 48 86
e 48 87
e 48 89
e 48 92
e 48 94
e 48 101
e 48 105
e 48 131
e 48 132
e 48 134
e 49 55
e 49 56
e 49 78
e 49 81
e 49 83
e 49 85
e 49 90
e 49 95
e 49 96
e 49 98
e 49 109
e 49 114
e 49 121
e 49 135
e 49 137
e 50 55
e 50 69
e 50 70
e 50 71
e 50 91
e 50 93
e 50 94
e 50 99
e 50 102
e 50 106
e 50 113
e 50 115
e 50 122
e 50 127
e 51 54
e 51 56
e 51 61
e 51 63
e 51 67
e 51 75
e 51 79
e 51 84
e 51 85
e 51 86
e 51 101
e 51 122
e 52 57
e 52 64
e 52 69
e 52 73
e 52 74
e 52 96
e 52 105
e 52 110
e 52 119
e 53 59
e 53 60
e 53 61
e 53 63
e 53 73
e 53 83
e 53 88
e 53 104
e 53 106
e 53 126
e 53 129
e 53 139
e 53 141
e 54 56
e 54 63
e 54 67
e 54 84
e 54 101
e 54 114
e 54 122
e 54 128
e 55 56
e 55 69
e 55 71
e 55 78
e 55 90
e 55 93
e 55 96
e 55 102
e 55 109
e 55 115
e 56 63
e 56 67
e 56 78
e 56 84
e 56 90
e 56 96
e 56 101
e 56 109
e 56 122
e 57 58
e 57 62
e 57 64
e 57 72
e 57 73
e 57 74
e 57 96
e 57 100
e 57 105
e 57 110
e 57 111
e 57 132
e 58 62
e 58 70
e 58 72
e 58 77
e 58 79
e 58 87
e 58 100
e 58 108
e 58 111
e 58 117
e 58 132
e 59 60
e 59 61
e 59 64
e 59 88
e 59 102
e 59 106
e 59 116
e 59 129
e 59 130
e 59 135
e 59 136
e 59 139
e 60 61
e 60 87
e 60 88
e 60 92
e 60 101
e 60 105
e 60 106
e 60 129
e 60 134
e 60 139
e 61 75
e 61 79
e 61 85
e 61 86
e 61 88
e 61 106
e 61 129
e 61 139
e 62 72
e 62 82
e 62 90
e 62 100
e 62 107
e 62 111
e 62 132
e 63 67
e 63 73
e 63 83
e 63 84
e 63 101
e 63 104
e 63 122
e 63 126
e 63 141
e 64 73
e 64 74
e 64 96
e 64 102
e 64 105
e 64 110
e 64 116
e 64 130
e 64 135
e 64 136
e 65 66
e 65 108
e 65 113
e 65 115
e 65 118
e 65 121
e 65 129
e 65 130
e 65 133
e 65 140
e 66 72
e 66 91
e 66 97
e 66 104
e 66 108
e 66 109
e 66 112
e 66 115
e 66 121
e 66 125
e 66 129
e 66 133
e 67 84
e 67 95
e 67 101
e 67 107
e 67 112
e 67 117
e 67 122
e 67 140
e 68 74
e 68 75
e 68 76
e 68 78
e 68 88
e 68 100
e 68 120
e 68 123
e 68 124
e 68 125
e 68 134
e 68 138
e 68 141
e 69 71
e 69 93
e 69 102
e 69 115
e 69 119
e 70 77
e 70 79
e 70 87
e 70 91
e 70 94
e 70 99
e 70 106
e 70 108
e 70 113
e 70 117
e 70 122
e 70 127
e 71 80
e 71 93
e 71 97
e 71 102
e 71 103
e 71 115
e 71 118
e 71 137
e 72 91
e 72 97
e 72 100
e 72 104
e 72 109
e 72 111
e 72 112
e 72 125
e 72 132
e 73 74
e 73 83
e 73 96
e 73 104
e 73 105
e 73 110
e 73 126
e 73 141
e 74 88
e 74 96
e 74 105
e 74 110
e 74 120
e 74 124
e 74 125
e 74 138
e 75 76
e 75 78
e 75 79
e 75 85
e 75 86
e 75 100
e 75 123
e 75 134
e 75 141
e 76 78
e 76 84
e 76 98
e 76 100
e 76 123
e 76 131
e 76 134
e 76 141
e 77 79
e 77 81
e 77 82
e 77 87
e 77 89
e 77 93
e 77 108
e 77 110
e 77 117
e 77 123
e 77 139
e 78 90
e 78 96
e 78 100
e 78 109
e 78 123
e 78 134
e 78 141
e 79 85
e 79 86
e 79 87
e 79 108
e 79 117
e 80 92
e 80 97
e 80 103
e 80 111
e 80 118
e 80 124
e 80 136
e 80 137
e 81 82
e 81 83
e 81 85
e 81 89
e 81 93
e 81 95
e 81 98
e 81 110
e 81 114
e 81 121
e 81 123
e 81 135
e 81 137
e 81 139
e 82 89
e 82 90
e 82 93
e 82 107
e 82 110
e 82 123
e 82 139
e 83 85
e 83 95
e 83 98
e 83 104
e 83 114
e 83 121
e 83 126
e 83 135
e 83 137
e 83 141
e 84 98
e 84 101
e 84 122
e 84 131
e 85 86
e 85 95
e 85 98
e 85 114
e 85 121
e 85 135
e 85 137
e 86 89
e 86 94
e 86 131
e 86 132
e 87 92
e 87 101
e 87 105
e 87 108
e 87 117
e 87 134
e 88 106
e 88 120
e 88 124
e 88 125
e 88 129
e 88 138
e 88 139
e 89 93
e 89 94
e 89 110
e 89 123
e 89 131
e 89 132
e 89 139
e 90 96
e 90 107
e 90 109
e 91 94
e 91 97
e 91 99
e 91 104
e 91 106
e 91 109
e 91 112
e 91 113
e 91 122
e 91 125
e 91 127
e 92 101
e 92 105
e 92 111
e 92 124
e 92 134
e 92 136
e 93 102
e 93 110
e 93 115
e 93 123
e 93 139
e 94 99
e 94 106
e 94 113
e 94 122
e 94 127
e 94 131
e 94 132
e 95 98
e 95 107
e 95 112
e 95 114
e 95 117
e 95 121
e 95 135
e 95 137
e 95 140
e 96 105
e 96 109
e 96 110
e 97 103
e 97 104
e 97 109
e 97 112
e 97 118
e 97 125
e 97 137
e 98 114
e 98 121
e 98 131
e 98 135
e 98 137
e 99 106
e 99 113
e 99 122
e 99 126
e 99 127
e 100 111
e 100 123
e 100 132
e 100 134
e 100 141
e 101 105
e 101 122
e 101 134
e 102 115
e 102 116
e 102 130
e 102 135
e 102 136
e 103 116
e 103 118
e 103 119
e 103 127
e 103 128
e 103 133
e 103 137
e 103 138
e 104 109
e 104 112
e 104 125
e 104 126
e 104 141
e 105 110
e 105 134
e 106 113
e 106 122
e 106 127
e 106 129
e 106 139
e 107 112
e 107 117
e 107 140
e 108 115
e 108 117
e 108 121
e 108 129
e 108 133
e 109 112
e 109 125
e 110 123
e 110 139
e 111 124
e 111 132
e 111 136
e 112 117
e 112 125
e 112 140
e 113 118
e 113 122
e 113 127
e 113 130
e 113 140
e 114 121
e 114 128
e 114 135
e 114 137
e 115 121
e 115 129
e 115 133
e 116 119
e 116 127
e 116 128
e 116 130
e 116 133
e 116 135
e 116 136
e 116 138
e 117 140
e 118 130
e 118 137
e 118 140
e 119 127
e 119 128
e 119 133
e 119 138
e 120 124
e 120 125
e 120 138
e 121 129
e 121 133
e 121 135
e 121 137
e 122 127
e 123 134
e 123 139
e 123 141
e 124 125
e 124 136
e 124 138
e 125 138
e 126 141
e 127 128
e 127 133
e 127 138
e 128 133
e 128 138
e 129 133
e 129 139
e 130 135
e 130 136
e 130 140
e 131 132
e 133 138
e 134 141
e 135 136
e 135 137
